4 2 100 1 2
0 1000
 1 35.00 35.00 0.00 0.00 0.00 0 0 0 1000
 2 41.00 49.00 10.00 10.00 18.00 1 1 1 0 974
 3 35.00 17.00 10.00 7.00 10.00 1 1 1 0 972
 4 55.00 45.00 10.00 13.00 13.00 1 1 1 0 967
 5 55.00 20.00 10.00 19.00 18.00 1 1 1 620 860
 6 15.00 30.00 10.00 26.00 2.00 1 1 1 0 969
 7 25.00 30.00 10.00 3.00 5.00 1 1 1 345 585
 8 20.00 50.00 10.00 5.00 10.00 1 1 1 0 968
 9 10.00 43.00 10.00 9.00 36.00 1 1 1 323 563
 10 55.00 60.00 10.00 16.00 20.00 1 1 1 329 569
 11 30.00 60.00 10.00 16.00 21.00 1 1 1 485 725
 12 20.00 65.00 10.00 12.00 26.00 1 1 1 146 386
 13 50.00 35.00 10.00 19.00 3.00 1 1 1 0 975
 14 30.00 25.00 10.00 23.00 18.00 1 1 1 639 879
 15 15.00 10.00 10.00 20.00 17.00 1 1 1 0 957
 16 30.00 5.00 10.00 8.00 5.00 1 1 1 118 358
 17 10.00 20.00 10.00 19.00 9.00 1 1 1 0 960
 18 5.00 30.00 10.00 2.00 15.00 1 1 1 682 922
 19 20.00 40.00 10.00 12.00 9.00 1 1 1 0 974
 20 15.00 60.00 10.00 17.00 20.00 1 1 1 0 957
 21 45.00 65.00 10.00 9.00 36.00 1 1 1 0 958
 22 45.00 20.00 10.00 11.00 5.00 1 1 1 0 971
 23 45.00 10.00 10.00 18.00 6.00 1 1 1 332 572
 24 55.00 5.00 10.00 29.00 9.00 1 1 1 146 386
 25 65.00 35.00 10.00 3.00 6.00 1 1 1 0 960
 26 65.00 20.00 10.00 6.00 19.00 1 1 1 716 956
 27 45.00 30.00 10.00 17.00 6.00 1 1 1 0 978
 28 35.00 40.00 10.00 16.00 9.00 1 1 1 60 300
 29 41.00 37.00 10.00 16.00 19.00 1 1 1 0 983
 30 64.00 42.00 10.00 9.00 17.00 1 1 1 0 960
 31 40.00 60.00 10.00 21.00 18.00 1 1 1 187 427
 32 31.00 52.00 10.00 27.00 16.00 1 1 1 0 972
 33 35.00 69.00 10.00 23.00 26.00 1 1 1 0 956
 34 53.00 52.00 10.00 11.00 14.00 1 1 1 24 264
 35 65.00 55.00 10.00 14.00 20.00 1 1 1 0 953
 36 63.00 65.00 10.00 8.00 11.00 1 1 1 630 870
 37 2.00 60.00 10.00 5.00 11.00 1 1 1 41 281
 38 20.00 20.00 10.00 8.00 35.00 1 1 1 0 968
 39 5.00 5.00 10.00 16.00 14.00 1 1 1 234 474
 40 60.00 12.00 10.00 31.00 27.00 1 1 1 33 273
 41 40.00 25.00 10.00 9.00 8.00 1 1 1 279 519
 42 42.00 7.00 10.00 5.00 12.00 1 1 1 334 574
 43 24.00 12.00 10.00 5.00 11.00 1 1 1 25 265
 44 23.00 3.00 10.00 7.00 9.00 1 1 1 0 955
 45 11.00 14.00 10.00 18.00 12.00 1 1 1 167 407
 46 6.00 38.00 10.00 16.00 41.00 1 1 1 29 269
 47 2.00 48.00 10.00 1.00 9.00 1 1 1 0 954
 48 8.00 56.00 10.00 27.00 25.00 1 1 1 0 955
 49 13.00 52.00 10.00 36.00 16.00 1 1 1 0 962
 50 6.00 68.00 10.00 30.00 9.00 1 1 1 401 641
 51 47.00 47.00 10.00 13.00 1.00 1 1 1 0 973
 52 49.00 58.00 10.00 10.00 7.00 1 1 1 0 963
 53 27.00 43.00 10.00 9.00 15.00 1 1 1 0 978
 54 37.00 31.00 10.00 14.00 22.00 1 1 1 332 572
 55 57.00 29.00 10.00 18.00 13.00 1 1 1 0 967
 56 63.00 23.00 10.00 2.00 3.00 1 1 1 560 800
 57 53.00 12.00 10.00 6.00 8.00 1 1 1 519 759
 58 32.00 12.00 10.00 7.00 9.00 1 1 1 0 966
 59 36.00 26.00 10.00 18.00 23.00 1 1 1 740 980
 60 21.00 24.00 10.00 28.00 16.00 1 1 1 0 972
 61 17.00 34.00 10.00 3.00 19.00 1 1 1 0 971
 62 12.00 24.00 10.00 13.00 10.00 1 1 1 0 964
 63 24.00 58.00 10.00 19.00 16.00 1 1 1 113 353
 64 27.00 69.00 10.00 10.00 13.00 1 1 1 0 955
 65 15.00 77.00 10.00 9.00 13.00 1 1 1 154 394
 66 62.00 77.00 10.00 20.00 7.00 1 1 1 49 289
 67 49.00 73.00 10.00 25.00 27.00 1 1 1 523 763
 68 67.00 5.00 10.00 25.00 25.00 1 1 1 228 468
 69 56.00 39.00 10.00 36.00 23.00 1 1 1 575 815
 70 37.00 47.00 10.00 6.00 16.00 1 1 1 108 348
 71 37.00 56.00 10.00 5.00 31.00 1 1 1 728 968
 72 57.00 68.00 10.00 15.00 29.00 1 1 1 0 950
 73 47.00 16.00 10.00 25.00 28.00 1 1 1 0 967
 74 44.00 17.00 10.00 9.00 14.00 1 1 1 0 969
 75 46.00 13.00 10.00 8.00 8.00 1 1 1 622 862
 76 49.00 11.00 10.00 18.00 6.00 1 1 1 0 962
 77 49.00 42.00 10.00 13.00 30.00 1 1 1 212 452
 78 53.00 43.00 10.00 14.00 1.00 1 1 1 730 970
 79 61.00 52.00 10.00 3.00 3.00 1 1 1 322 562
 80 57.00 48.00 10.00 23.00 12.00 1 1 1 307 547
 81 56.00 37.00 10.00 6.00 18.00 1 1 1 728 968
 82 55.00 54.00 10.00 26.00 3.00 1 1 1 0 962
 83 15.00 47.00 10.00 16.00 27.00 1 1 1 0 966
 84 14.00 37.00 10.00 11.00 23.00 1 1 1 0 968
 85 11.00 31.00 10.00 7.00 16.00 1 1 1 354 594
 86 16.00 22.00 10.00 41.00 5.00 1 1 1 0 966
 87 4.00 18.00 10.00 35.00 2.00 1 1 1 0 954
 88 28.00 18.00 10.00 26.00 25.00 1 1 1 314 554
 89 26.00 52.00 10.00 9.00 9.00 1 1 1 214 454
 90 26.00 35.00 10.00 15.00 11.00 1 1 1 0 981
 91 31.00 67.00 10.00 3.00 7.00 1 1 1 0 957
 92 15.00 19.00 10.00 1.00 5.00 1 1 1 0 964
 93 22.00 22.00 10.00 2.00 10.00 1 1 1 18 258
 94 18.00 24.00 10.00 22.00 3.00 1 1 1 729 969
 95 26.00 27.00 10.00 27.00 16.00 1 1 1 0 977
 96 25.00 24.00 10.00 20.00 7.00 1 1 1 0 975
 97 22.00 27.00 10.00 11.00 17.00 1 1 1 0 974
 98 25.00 21.00 10.00 12.00 19.00 1 1 1 0 972
 99 19.00 21.00 10.00 10.00 2.00 1 1 1 0 968
 100 20.00 26.00 10.00 9.00 26.00 1 1 1 263 503
 101 18.00 18.00 10.00 17.00 8.00 1 1 1 725 965
